
se = 80; % nombre de sessions
gr = 40; % nombre de grups de treball
cl = 12; % nombre de slots
minPapersPerSlot = 3; % minim nombre d'articles per sessio i slot
maxSesionsPar = 20; % maxim nombre de sessions paraleles

npMax = [4, 4, 6, 3, 4, 6, 4, 5, 4, 4, 5, 3]; % nombre maxim de papers per slot

np = [6, 10, 13, 6, 3, 3, 10, 12, 12, 14, 3, 3, 7, 6, 17, 3, 14, 3, 10, 12, 3, 15, 11, 19, 18, 7, 8, 3, 3, 19, 3, 15, 14, 10, 3, 17, 5, 9, 16, 18, 6, 12, 5, 7, 3, 4, 3, 15, 7, 4, 15, 13, 10, 10, 17, 12, 17, 15, 8, 3, 12, 10, 14, 6, 4, 4, 3, 11, 12, 5, 13, 8, 3, 8, 3, 7, 18, 5, 7, 6]; % nombre de papers acceptats a cada sessio

WG = [ {}, {1}, {2,3,4}, {5}, {}, {6}, {7}, {8}, {9}, {10}, {}, {11}, {12}, {13}, {14,15,16}, {}, {17}, {}, {18,19,20}, {21}, {22}, {}, {23}, {}, {24}, {25,26,27}, {}, {}, {28}, {}, {29,30}, {31}, {32}, {33}, {}, {}, {34}, {35,36,37}, {}, {}, {38}, {39}, {40}, {}, {}, {1,2,3}, {}, {}, {}, {4}, {5}, {6}, {7}, {8}, {}, {9}, {10}, {11}, {12}, {13}, {14}, {15}, {}, {}, {16}, {17}, {18}, {19,20}, {21}, {22}, {23,24}, {}, {25,26}, {27}, {}, {28,29}, {30}, {31}, {32}, {} ]; % grups per sessio

